
Welcome to IBM(R) ILOG(R) CPLEX(R) Interactive Optimizer 22.1.1.0
  with Simplex, Mixed Integer & Barrier Optimizers
5725-A06 5725-A29 5724-Y48 5724-Y49 5724-Y54 5724-Y55 5655-Y21
Copyright IBM Corp. 1988, 2022.  All Rights Reserved.

Type 'help' for a list of available commands.
Type 'help' followed by a command name for more
information on commands.

CPLEX> Selected objective sense:  MINIMIZE
Selected objective  name:  00000000
Selected RHS        name:  RHS1
Selected bound      name:  BOUND
Problem 'ee.mps' read.
Read time = 0.03 sec. (3.17 ticks)
CPLEX> New value for time limit in seconds: 7200
CPLEX> New value for parallel optimization mode: -1
CPLEX> New value for default parallel thread count: 40
CPLEX> New value for mixed integer optimality gap tolerance: 1e-13
CPLEX> Version identifier: 22.1.1.0 | 2022-11-28 | 9160aff4d
CPXPARAM_Threads                                 40
CPXPARAM_Parallel                                -1
CPXPARAM_TimeLimit                               7200
CPXPARAM_MIP_Tolerances_MIPGap                   1e-13
Found incumbent of value 0.000000 after 0.00 sec. (0.31 ticks)
Tried aggregator 4 times.
MIP Presolve eliminated 256 rows and 3267 columns.
MIP Presolve modified 6042 coefficients.
Aggregator did 777 substitutions.
Reduced MIP has 3495 rows, 7238 columns, and 26706 nonzeros.
Reduced MIP has 7238 binaries, 0 generals, 0 SOSs, and 0 indicators.
Presolve time = 0.08 sec. (85.67 ticks)
Probing time = 0.03 sec. (5.29 ticks)
Tried aggregator 1 time.
Detecting symmetries...
Reduced MIP has 3495 rows, 7238 columns, and 26706 nonzeros.
Reduced MIP has 7238 binaries, 0 generals, 0 SOSs, and 0 indicators.
Presolve time = 0.02 sec. (20.40 ticks)
Probing fixed 60 vars, tightened 0 bounds.
Probing time = 0.06 sec. (29.16 ticks)
Clique table members: 17330.
MIP emphasis: balance optimality and feasibility.
MIP search method: dynamic search.
Parallel mode: opportunistic, using up to 40 threads.
Root relaxation solution time = 0.12 sec. (100.40 ticks)

        Nodes                                         Cuts/
   Node  Left     Objective  IInf  Best Integer    Best Bound    ItCnt     Gap

*     0+    0                            0.0000  -1.54000e+13              --- 
*     0+    0                      -4.80000e+12  -1.54000e+13           220.83%
*     0+    0                      -6.00000e+12  -1.54000e+13           156.67%
      0     0  -1.53900e+13    33  -6.00000e+12  -1.53900e+13     2488  156.50%
*     0+    0                      -1.53900e+13  -1.53900e+13             0.00%
      0     0  -1.53900e+13   132  -1.53900e+13      Cuts: 49     3112    0.00%
*     0+    0                      -1.53900e+13  -1.53900e+13             0.00%
      0     0  -1.53900e+13   165  -1.53900e+13      Cuts: 90     3263    0.00%
*     0+    0                      -1.53900e+13  -1.53900e+13             0.00%
*     0+    0                      -1.53900e+13  -1.53900e+13             0.00%
      0    11        cutoff        -1.53900e+13  -1.53900e+13     5359    0.00%
Elapsed time = 1.96 sec. (929.32 ticks, tree = 0.02 MB, solutions = 7)
*    49+   33                      -1.53900e+13  -1.53900e+13             0.00%
    152    61  -1.53900e+13   214  -1.53900e+13  -1.53900e+13    22607    0.00%
    961    78  -1.53900e+13   171  -1.53900e+13  -1.53900e+13    37143    0.00%
   1769    97  -1.53900e+13   188  -1.53900e+13  -1.53900e+13    52053    0.00%
   2511   179  -1.53900e+13   227  -1.53900e+13  -1.53900e+13    82042    0.00%
   3024   416  -1.53900e+13   142  -1.53900e+13  -1.53900e+13   113892    0.00%
   3531  1146  -1.53900e+13   150  -1.53900e+13  -1.53900e+13   233287    0.00%
   4163  1895  -1.53900e+13    71  -1.53900e+13  -1.53900e+13   347043    0.00%
   4962  1540  -1.53900e+13    90  -1.53900e+13  -1.53900e+13   296849    0.00%
   5730  1121  -1.53900e+13   149  -1.53900e+13  -1.53900e+13   231353    0.00%
   9295  1757        cutoff        -1.53900e+13  -1.53900e+13   330504    0.00%
Elapsed time = 7.47 sec. (4036.02 ticks, tree = 16.07 MB, solutions = 8)
  12203  3838  -1.53900e+13   162  -1.53900e+13  -1.53900e+13   554470    0.00%

Performing restart 1

Repeating presolve.
Tried aggregator 2 times.
MIP Presolve eliminated 225 rows and 636 columns.
MIP Presolve modified 1487 coefficients.
Aggregator did 32 substitutions.
Reduced MIP has 3222 rows, 6560 columns, and 23757 nonzeros.
Reduced MIP has 6560 binaries, 0 generals, 0 SOSs, and 0 indicators.
Presolve time = 0.06 sec. (54.32 ticks)
Tried aggregator 2 times.
MIP Presolve eliminated 31 rows and 72 columns.
Aggregator did 14 substitutions.
Reduced MIP has 3177 rows, 6465 columns, and 23435 nonzeros.
Reduced MIP has 6465 binaries, 0 generals, 0 SOSs, and 0 indicators.
Presolve time = 0.05 sec. (39.55 ticks)
Tried aggregator 2 times.
MIP Presolve eliminated 8 rows and 15 columns.
Aggregator did 3 substitutions.
Reduced MIP has 3166 rows, 6445 columns, and 23368 nonzeros.
Reduced MIP has 6445 binaries, 0 generals, 0 SOSs, and 0 indicators.
Presolve time = 0.05 sec. (43.44 ticks)
Represolve time = 0.35 sec. (228.83 ticks)
  13275     0  -1.53900e+13   282  -1.53900e+13      Cuts: 24   756944    0.00%
  13275     0  -1.53900e+13   324  -1.53900e+13      Cuts: 19   757265    0.00%
  13275     0  -1.53900e+13   415  -1.53900e+13      Cuts: 28   757505    0.00%
  13275     0  -1.53900e+13   388  -1.53900e+13      Cuts: 37   757629    0.00%
  13275     0  -1.53900e+13   359  -1.53900e+13      Cuts: 37   757832    0.00%
  13275     0  -1.53900e+13   369  -1.53900e+13      Cuts: 28   758018    0.00%
  13275     0  -1.53900e+13   418  -1.53900e+13      Cuts: 25   758195    0.00%
  13275     0  -1.53900e+13   454  -1.53900e+13      Cuts: 23   758308    0.00%
  13275     0  -1.53900e+13   407  -1.53900e+13      Cuts: 28   758463    0.00%
  13275     0  -1.53900e+13   395  -1.53900e+13      Cuts: 35   758572    0.00%
  13275     0  -1.53900e+13   439  -1.53900e+13      Cuts: 23   758693    0.00%
  13275     0  -1.53900e+13   429  -1.53900e+13      Cuts: 15   758821    0.00%
  13275     0  -1.53900e+13   483  -1.53900e+13      Cuts: 40   758951    0.00%
  13275     0  -1.53900e+13   418  -1.53900e+13      Cuts: 20   759039    0.00%
  13275     0  -1.53900e+13   404  -1.53900e+13      Cuts: 21   759087    0.00%
  13275     7        cutoff        -1.53900e+13  -1.53900e+13   760223    0.00%
  14576    33  -1.53900e+13   160  -1.53900e+13  -1.53900e+13   894102    0.00%
  17426    61  -1.53900e+13   154  -1.53900e+13  -1.53900e+13   870149    0.00%
  19551    76  -1.53900e+13   182  -1.53900e+13  -1.53900e+13   870837    0.00%
  21902    48  -1.53900e+13    66  -1.53900e+13  -1.53900e+13  1080804    0.00%
  23595    47  -1.53900e+13   139  -1.53900e+13  -1.53900e+13   964154    0.00%

GUB cover cuts applied:  1
Clique cuts applied:  11
Cover cuts applied:  309
Flow cuts applied:  1
Mixed integer rounding cuts applied:  33
Zero-half cuts applied:  100
Lift and project cuts applied:  2
Gomory fractional cuts applied:  12

Root node processing (before b&c):
  Real time             =    1.10 sec. (923.57 ticks)
Parallel b&c, 40 threads:
  Real time             =   22.71 sec. (13673.23 ticks)
  Sync time (average)   =    7.00 sec.
  Wait time (average)   =    0.10 sec.
                          ------------
Total (root+branch&cut) =   23.82 sec. (14596.80 ticks)

Solution pool: 8 solutions saved.

MIP - Integer optimal solution:  Objective = -1.5389999489e+13
Solution time =   23.96 sec.  Iterations = 1153373  Nodes = 23735
Deterministic time = 14596.83 ticks  (609.23 ticks/sec)

CPLEX> Solution 'p9' written to file 'ee.sol'.
CPLEX> 